c User generated cnf file
p cnf 9 51
-4 9 4 0 
3 -3 1 0 
2 5 -4 0 
1 -6 5 0 
9 -8 4 0 
1 3 -2 0 
-5 7 3 0 
7 -2 4 0 
-9 2 1 0 
6 9 -4 0 
9 -8 8 0 
-4 4 6 0 
-3 2 8 0 
-9 9 6 0 
2 6 -8 0 
7 -9 7 0 
-4 9 3 0 
-9 7 9 0 
4 -4 1 0 
3 -5 9 0 
-9 9 9 0 
8 -7 4 0 
9 -2 8 0 
5 5 -6 0 
-6 3 7 0 
6 3 -5 0 
2 -5 8 0 
-9 8 3 0 
1 -5 4 0 
5 9 -6 0 
-3 9 3 0 
1 -5 2 0 
2 -1 9 0 
3 2 -4 0 
-6 4 5 0 
1 7 -5 0 
-3 5 2 0 
6 -1 9 0 
-8 4 1 0 
6 7 -6 0 
7 2 -8 0 
-1 9 2 0 
2 -6 3 0 
7 9 -4 0 
6 4 -4 0 
-7 3 8 0 
-6 3 7 0 
2 -7 1 0 
-2 9 4 0 
6 2 -7 0 
1 -9 6 0 
